unsat
(:max-memory         18.14
 :memory             18.05
 :nlsat-conflicts    14
 :nlsat-decisions    2
 :nlsat-propagations 54
 :nlsat-stages       12
 :num-allocs         45704
 :rlimit-count       14955
 :time               0.01
 :total-time         0.02)
